p cnf 7230 16
-1488 1526 -1531 0
1488 -1527 0
-1527 1531 0
1532 -1533 0
-895 -1448 1525 0
-1526 1527 0
-1529 1531 0
1530 -1531 0
1528 -1530 0
-1286 1529 0
1286 -1528 0
-111 -1504 1533 0
-1524 -1525 0
1524 1525 0
1504 -1533 0
111 -1533 0
